5,1,4,1,5,3,1,3,9,5,7,6,2,5,4,8,9,9,7,10;5,2,10,2,7,2,2,3,3,8,8,9,3,10,6,9,9,10,1,10;2,1,4,2,10,3,4,4,10,6,8,8,7,8,2,8,6,10;6,3,4,3,10,4,10,5,3,7,8,7,5,7,2,9,1,9;10,1,9,1,2,2,3,5,9,4,8,6,5,5,4,6,7,7,2,6,8,10;5,4,8,5,6,5,6,6,6,7,4,7,5,8,5,10;6,2,8,3,8,4,7,3,3,6,1,5,4,5,5,6,10,7,1,8,10,9,10,10;6,1,3,3,7,1,6,4,1,4,2,4,1,6,1,7,10,8,9,8,7,9;3,1,3,2,8,2,1,2,9,2,9,3,7,4,7,5,9,6,9,7,2,7,5,9,4,9,2,10;8,1,1,1,3,4,3,9,6,8,4,10;
